c Property 4 - Liveness property
c Ensures that system can reach accepting state
c Verifies progress conditions in state machine
c Variables: 1=init_state, 2=process_active, 3=resource_available, 4=can_progress, 5=accept_state
p cnf 5 8
1 2 0
-1 3 0
2 4 0
-2 -3 4 0
3 5 0
4 5 0
-4 -5 1 0
2 5 0